56164
14, 12, 18, 4, 30, 47, 54, 49, 19, 32, 44, 8, 38, 50, 20, 24, 35, 41, 13, 5, 37, 7, 51, 40, 43, 3, 6, 28, 55, 26, 48, 17, 29, 39, 46, 36, 15, 2, 42, 33, 1, 27, 31, 25, 11, 45, 52, 16, 10, 22, 21, 23, 53, 34, 9
